154998 110 544391 12206825 177176 0.94
153972 165 816586 18422889 178922 0.99
154748 119 588932 13141613 179830 0.99
156140 120 593881 13307759 178530 0.95
156128 135 668116 14963118 178602 0.97
154938 130 643371 14385477 178030 1
154070 126 623575 14186185 177194 0.98
154796 104 514697 11808816 178990 0.96
155350 98 485003 11294085 178462 0.95
155096 124 613677 14318534 179148 0.99
